Optimal - objective value 202.00000000
      0 C_0                    31                       0
      1 C_1                     8                       0
      2 C_2                    15                       0
      3 C_3                    24                       0
      4 C_4                    28                       0
      5 C_5                    18                       0
      6 C_6       7.00000000000001                       0
      7 x_0_0                   1                     189
     12 x_1_2                   1                    2079
     15 x_2_2                   1                     945
     17 x_3_1                   1                     189
     21 x_4_2                   1                     189
     22 x_5_0                   1                     756
     26 x_6_1                   1                     756
     28 d_0_1_0                 1                       0
     29 d_0_1_1                 1                       0
     31 d_0_2_0                 1                       0
     35 d_0_3_1                 1                       0
     38 d_0_4_1                 1                       0
     39 d_0_4_2                 1                       0
     41 d_0_5_1                 1                       0
     44 d_0_6_1                 1                       0
     48 d_1_2_2                 1                     756
     50 d_1_3_1                 1                       0
     51 d_1_3_2                 1                       0
     52 d_1_4_0                 1                       0
     53 d_1_4_1                 1                       0
     54 d_1_4_2                 1                       0
     56 d_1_5_1                 1                       0
     57 d_1_5_2                 1                       0
     59 d_1_6_1                 1                       0
     61 d_2_3_0                 1                       0
     62 d_2_3_1                 1                       0
     63 d_2_3_2                 1                       0
     64 d_2_4_0                 1                       0
     66 d_2_4_2                 1                     189
     67 d_2_5_0                 1                       0
     69 d_2_5_2                 1                       0
     77 d_3_5_1                 1                       0
     86 d_4_6_1                 1                       0
     89 d_5_6_1                 1                       0
